p edge 75 1388
e 1 2
e 1 3
e 1 6
e 1 9
e 1 13
e 1 16
e 1 17
e 1 19
e 1 20
e 1 21
e 1 23
e 1 26
e 1 29
e 1 33
e 1 36
e 1 37
e 1 38
e 1 40
e 1 41
e 1 42
e 1 43
e 1 44
e 1 45
e 1 51
e 1 53
e 1 55
e 1 56
e 1 60
e 1 61
e 1 64
e 1 65
e 1 67
e 1 68
e 1 69
e 1 71
e 1 72
e 1 73
e 1 74
e 1 75
e 2 5
e 2 6
e 2 10
e 2 11
e 2 14
e 2 15
e 2 18
e 2 19
e 2 20
e 2 21
e 2 23
e 2 30
e 2 32
e 2 33
e 2 36
e 2 39
e 2 40
e 2 41
e 2 42
e 2 43
e 2 44
e 2 45
e 2 46
e 2 47
e 2 51
e 2 54
e 2 56
e 2 58
e 2 61
e 2 64
e 2 66
e 2 67
e 2 69
e 2 75
e 3 4
e 3 5
e 3 6
e 3 7
e 3 10
e 3 11
e 3 13
e 3 14
e 3 15
e 3 19
e 3 20
e 3 23
e 3 24
e 3 26
e 3 27
e 3 32
e 3 34
e 3 35
e 3 37
e 3 40
e 3 41
e 3 42
e 3 43
e 3 45
e 3 46
e 3 47
e 3 48
e 3 50
e 3 52
e 3 53
e 3 54
e 3 55
e 3 56
e 3 57
e 3 62
e 3 64
e 3 73
e 4 5
e 4 6
e 4 7
e 4 9
e 4 10
e 4 12
e 4 14
e 4 17
e 4 19
e 4 20
e 4 21
e 4 22
e 4 27
e 4 30
e 4 32
e 4 33
e 4 36
e 4 37
e 4 39
e 4 41
e 4 42
e 4 43
e 4 45
e 4 46
e 4 49
e 4 51
e 4 53
e 4 54
e 4 55
e 4 56
e 4 57
e 4 61
e 4 62
e 4 63
e 4 65
e 4 67
e 4 68
e 4 72
e 4 74
e 5 9
e 5 13
e 5 14
e 5 16
e 5 18
e 5 22
e 5 25
e 5 26
e 5 27
e 5 30
e 5 35
e 5 36
e 5 38
e 5 39
e 5 40
e 5 41
e 5 42
e 5 43
e 5 45
e 5 46
e 5 47
e 5 48
e 5 50
e 5 52
e 5 54
e 5 56
e 5 57
e 5 59
e 5 62
e 5 66
e 5 67
e 5 68
e 5 69
e 5 70
e 5 71
e 5 72
e 5 75
e 6 7
e 6 9
e 6 10
e 6 11
e 6 12
e 6 14
e 6 15
e 6 18
e 6 19
e 6 21
e 6 25
e 6 27
e 6 28
e 6 32
e 6 35
e 6 36
e 6 38
e 6 39
e 6 40
e 6 42
e 6 43
e 6 44
e 6 47
e 6 48
e 6 49
e 6 55
e 6 57
e 6 60
e 6 61
e 6 62
e 6 64
e 6 66
e 6 67
e 6 68
e 6 69
e 6 72
e 6 73
e 6 75
e 7 11
e 7 13
e 7 16
e 7 17
e 7 19
e 7 20
e 7 21
e 7 22
e 7 23
e 7 24
e 7 26
e 7 27
e 7 30
e 7 32
e 7 35
e 7 37
e 7 40
e 7 42
e 7 43
e 7 44
e 7 45
e 7 47
e 7 50
e 7 54
e 7 55
e 7 57
e 7 59
e 7 61
e 7 67
e 7 71
e 7 72
e 7 74
e 8 9
e 8 10
e 8 12
e 8 13
e 8 14
e 8 16
e 8 19
e 8 21
e 8 22
e 8 24
e 8 25
e 8 29
e 8 30
e 8 31
e 8 32
e 8 34
e 8 36
e 8 37
e 8 38
e 8 39
e 8 41
e 8 43
e 8 44
e 8 46
e 8 47
e 8 48
e 8 49
e 8 52
e 8 54
e 8 55
e 8 57
e 8 58
e 8 64
e 8 68
e 8 72
e 8 75
e 9 10
e 9 14
e 9 16
e 9 17
e 9 18
e 9 19
e 9 20
e 9 22
e 9 23
e 9 24
e 9 29
e 9 30
e 9 31
e 9 32
e 9 36
e 9 38
e 9 39
e 9 42
e 9 46
e 9 50
e 9 51
e 9 55
e 9 56
e 9 60
e 9 64
e 9 66
e 9 68
e 9 71
e 9 73
e 9 75
e 10 11
e 10 12
e 10 14
e 10 19
e 10 24
e 10 25
e 10 27
e 10 31
e 10 32
e 10 34
e 10 35
e 10 37
e 10 39
e 10 41
e 10 42
e 10 45
e 10 48
e 10 51
e 10 54
e 10 55
e 10 56
e 10 57
e 10 58
e 10 60
e 10 65
e 10 66
e 10 75
e 11 12
e 11 13
e 11 15
e 11 16
e 11 19
e 11 20
e 11 21
e 11 24
e 11 25
e 11 26
e 11 27
e 11 28
e 11 29
e 11 30
e 11 31
e 11 32
e 11 33
e 11 34
e 11 35
e 11 37
e 11 39
e 11 40
e 11 41
e 11 42
e 11 46
e 11 48
e 11 50
e 11 53
e 11 54
e 11 57
e 11 59
e 11 60
e 11 63
e 11 64
e 11 66
e 11 67
e 11 68
e 11 72
e 11 74
e 12 13
e 12 16
e 12 17
e 12 19
e 12 23
e 12 24
e 12 27
e 12 31
e 12 33
e 12 34
e 12 36
e 12 39
e 12 40
e 12 42
e 12 43
e 12 44
e 12 45
e 12 46
e 12 47
e 12 50
e 12 51
e 12 53
e 12 58
e 12 62
e 12 63
e 12 68
e 12 71
e 12 74
e 13 14
e 13 16
e 13 17
e 13 18
e 13 20
e 13 21
e 13 23
e 13 26
e 13 29
e 13 32
e 13 34
e 13 35
e 13 36
e 13 40
e 13 42
e 13 43
e 13 46
e 13 47
e 13 51
e 13 54
e 13 55
e 13 56
e 13 57
e 13 62
e 13 63
e 13 64
e 13 65
e 13 66
e 13 68
e 13 69
e 13 73
e 13 74
e 14 17
e 14 18
e 14 22
e 14 23
e 14 25
e 14 26
e 14 29
e 14 30
e 14 32
e 14 34
e 14 35
e 14 36
e 14 37
e 14 38
e 14 42
e 14 43
e 14 45
e 14 46
e 14 47
e 14 48
e 14 49
e 14 50
e 14 52
e 14 53
e 14 54
e 14 55
e 14 58
e 14 59
e 14 61
e 14 66
e 14 73
e 15 16
e 15 20
e 15 21
e 15 23
e 15 32
e 15 35
e 15 37
e 15 38
e 15 39
e 15 41
e 15 45
e 15 46
e 15 49
e 15 50
e 15 52
e 15 53
e 15 55
e 15 56
e 15 58
e 15 60
e 15 64
e 15 66
e 15 69
e 15 70
e 15 72
e 15 74
e 16 21
e 16 22
e 16 24
e 16 26
e 16 27
e 16 29
e 16 30
e 16 31
e 16 35
e 16 36
e 16 40
e 16 43
e 16 44
e 16 45
e 16 46
e 16 48
e 16 49
e 16 51
e 16 52
e 16 53
e 16 59
e 16 61
e 16 62
e 16 64
e 16 65
e 16 66
e 16 68
e 16 69
e 16 70
e 16 71
e 16 72
e 16 74
e 16 75
e 17 18
e 17 20
e 17 21
e 17 22
e 17 26
e 17 29
e 17 30
e 17 31
e 17 39
e 17 40
e 17 43
e 17 44
e 17 45
e 17 47
e 17 48
e 17 50
e 17 52
e 17 53
e 17 55
e 17 62
e 17 63
e 17 64
e 17 65
e 17 66
e 17 67
e 17 68
e 17 70
e 17 71
e 17 72
e 17 73
e 17 74
e 18 21
e 18 22
e 18 25
e 18 26
e 18 27
e 18 28
e 18 29
e 18 31
e 18 35
e 18 38
e 18 40
e 18 46
e 18 47
e 18 49
e 18 51
e 18 52
e 18 53
e 18 54
e 18 55
e 18 57
e 18 61
e 18 62
e 18 65
e 18 66
e 18 67
e 18 68
e 18 69
e 18 70
e 18 72
e 18 75
e 19 21
e 19 22
e 19 23
e 19 24
e 19 26
e 19 28
e 19 30
e 19 31
e 19 32
e 19 33
e 19 34
e 19 36
e 19 37
e 19 38
e 19 39
e 19 43
e 19 46
e 19 48
e 19 49
e 19 50
e 19 54
e 19 56
e 19 57
e 19 60
e 19 61
e 19 65
e 19 68
e 19 69
e 19 72
e 19 73
e 20 23
e 20 24
e 20 25
e 20 26
e 20 27
e 20 28
e 20 29
e 20 32
e 20 35
e 20 36
e 20 41
e 20 42
e 20 44
e 20 46
e 20 52
e 20 54
e 20 55
e 20 57
e 20 61
e 20 62
e 20 63
e 20 64
e 20 65
e 20 66
e 20 67
e 20 69
e 20 73
e 20 74
e 21 25
e 21 27
e 21 28
e 21 29
e 21 30
e 21 31
e 21 33
e 21 36
e 21 37
e 21 38
e 21 41
e 21 44
e 21 45
e 21 48
e 21 49
e 21 50
e 21 53
e 21 54
e 21 57
e 21 58
e 21 61
e 21 62
e 21 63
e 21 70
e 21 71
e 21 72
e 21 75
e 22 28
e 22 31
e 22 32
e 22 33
e 22 37
e 22 39
e 22 44
e 22 48
e 22 50
e 22 51
e 22 52
e 22 53
e 22 55
e 22 56
e 22 57
e 22 60
e 22 62
e 22 63
e 22 66
e 22 67
e 22 69
e 22 73
e 22 74
e 22 75
e 23 24
e 23 25
e 23 26
e 23 28
e 23 33
e 23 37
e 23 38
e 23 39
e 23 42
e 23 49
e 23 51
e 23 52
e 23 54
e 23 58
e 23 59
e 23 61
e 23 62
e 23 63
e 23 64
e 23 65
e 23 66
e 23 67
e 23 68
e 23 72
e 23 75
e 24 26
e 24 28
e 24 29
e 24 33
e 24 35
e 24 36
e 24 39
e 24 40
e 24 41
e 24 42
e 24 46
e 24 47
e 24 48
e 24 50
e 24 51
e 24 52
e 24 54
e 24 56
e 24 61
e 24 62
e 24 63
e 24 64
e 24 65
e 24 67
e 24 70
e 24 74
e 25 26
e 25 27
e 25 30
e 25 31
e 25 32
e 25 33
e 25 35
e 25 39
e 25 42
e 25 43
e 25 44
e 25 45
e 25 47
e 25 48
e 25 51
e 25 53
e 25 54
e 25 56
e 25 57
e 25 58
e 25 61
e 25 62
e 25 66
e 25 67
e 25 68
e 25 71
e 25 72
e 25 75
e 26 29
e 26 30
e 26 32
e 26 33
e 26 34
e 26 36
e 26 40
e 26 42
e 26 43
e 26 46
e 26 48
e 26 51
e 26 52
e 26 56
e 26 58
e 26 59
e 26 62
e 26 63
e 26 65
e 26 66
e 26 68
e 26 69
e 26 73
e 26 74
e 27 29
e 27 30
e 27 32
e 27 33
e 27 34
e 27 36
e 27 37
e 27 38
e 27 39
e 27 41
e 27 43
e 27 44
e 27 46
e 27 47
e 27 48
e 27 49
e 27 51
e 27 52
e 27 53
e 27 54
e 27 60
e 27 62
e 27 63
e 27 65
e 27 66
e 27 69
e 27 70
e 27 71
e 28 30
e 28 31
e 28 33
e 28 37
e 28 40
e 28 41
e 28 49
e 28 50
e 28 51
e 28 54
e 28 55
e 28 56
e 28 57
e 28 60
e 28 63
e 28 64
e 28 65
e 28 66
e 28 69
e 28 71
e 28 72
e 28 75
e 29 32
e 29 33
e 29 38
e 29 43
e 29 44
e 29 46
e 29 49
e 29 51
e 29 52
e 29 55
e 29 56
e 29 58
e 29 60
e 29 61
e 29 62
e 29 66
e 29 67
e 29 68
e 29 69
e 29 71
e 29 75
e 30 32
e 30 33
e 30 34
e 30 36
e 30 37
e 30 38
e 30 39
e 30 41
e 30 43
e 30 44
e 30 47
e 30 51
e 30 52
e 30 53
e 30 54
e 30 55
e 30 61
e 30 62
e 30 63
e 30 64
e 30 65
e 30 67
e 30 68
e 30 69
e 30 73
e 30 75
e 31 33
e 31 34
e 31 35
e 31 40
e 31 43
e 31 44
e 31 46
e 31 47
e 31 50
e 31 51
e 31 62
e 31 63
e 31 64
e 31 66
e 31 69
e 31 70
e 31 71
e 31 73
e 32 33
e 32 34
e 32 35
e 32 37
e 32 38
e 32 39
e 32 40
e 32 42
e 32 44
e 32 46
e 32 47
e 32 48
e 32 50
e 32 52
e 32 53
e 32 54
e 32 56
e 32 57
e 32 58
e 32 64
e 32 66
e 32 67
e 32 68
e 32 69
e 32 71
e 32 73
e 32 75
e 33 34
e 33 40
e 33 47
e 33 48
e 33 49
e 33 50
e 33 52
e 33 53
e 33 56
e 33 57
e 33 60
e 33 63
e 33 64
e 33 65
e 33 66
e 33 69
e 33 70
e 33 72
e 33 73
e 34 40
e 34 41
e 34 43
e 34 54
e 34 56
e 34 57
e 34 58
e 34 63
e 34 65
e 34 70
e 34 71
e 34 72
e 34 73
e 34 74
e 34 75
e 35 36
e 35 41
e 35 42
e 35 43
e 35 44
e 35 47
e 35 49
e 35 53
e 35 54
e 35 59
e 35 62
e 35 64
e 35 69
e 35 71
e 35 72
e 36 37
e 36 38
e 36 39
e 36 40
e 36 41
e 36 43
e 36 44
e 36 47
e 36 50
e 36 51
e 36 52
e 36 54
e 36 55
e 36 59
e 36 60
e 36 62
e 36 64
e 36 65
e 36 66
e 36 67
e 36 70
e 36 74
e 36 75
e 37 39
e 37 40
e 37 41
e 37 49
e 37 50
e 37 51
e 37 53
e 37 55
e 37 56
e 37 57
e 37 59
e 37 62
e 37 67
e 37 68
e 37 69
e 37 71
e 37 73
e 37 75
e 38 39
e 38 40
e 38 41
e 38 44
e 38 46
e 38 48
e 38 56
e 38 57
e 38 59
e 38 60
e 38 61
e 38 63
e 38 66
e 38 67
e 38 69
e 38 70
e 38 71
e 38 74
e 39 40
e 39 41
e 39 45
e 39 49
e 39 50
e 39 52
e 39 53
e 39 54
e 39 56
e 39 59
e 39 62
e 39 66
e 39 72
e 39 73
e 39 74
e 39 75
e 40 42
e 40 44
e 40 50
e 40 51
e 40 55
e 40 57
e 40 58
e 40 59
e 40 61
e 40 63
e 40 64
e 40 66
e 40 69
e 40 70
e 40 71
e 40 72
e 40 74
e 40 75
e 41 44
e 41 46
e 41 47
e 41 48
e 41 49
e 41 51
e 41 52
e 41 54
e 41 55
e 41 57
e 41 58
e 41 61
e 41 62
e 41 67
e 41 73
e 42 43
e 42 45
e 42 49
e 42 50
e 42 51
e 42 52
e 42 53
e 42 54
e 42 55
e 42 57
e 42 59
e 42 60
e 42 62
e 42 63
e 42 64
e 42 67
e 42 69
e 42 74
e 42 75
e 43 44
e 43 46
e 43 48
e 43 49
e 43 50
e 43 51
e 43 52
e 43 53
e 43 56
e 43 57
e 43 58
e 43 61
e 43 62
e 43 63
e 43 64
e 43 66
e 43 67
e 43 69
e 43 70
e 43 72
e 43 74
e 43 75
e 44 52
e 44 53
e 44 59
e 44 60
e 44 63
e 44 66
e 45 49
e 45 51
e 45 52
e 45 54
e 45 56
e 45 57
e 45 60
e 45 62
e 45 63
e 45 64
e 45 68
e 45 69
e 45 71
e 45 74
e 46 47
e 46 53
e 46 54
e 46 57
e 46 58
e 46 60
e 46 62
e 46 65
e 46 66
e 46 69
e 46 72
e 46 73
e 47 49
e 47 52
e 47 53
e 47 54
e 47 56
e 47 57
e 47 58
e 47 59
e 47 62
e 47 65
e 47 68
e 47 71
e 47 72
e 47 73
e 48 50
e 48 51
e 48 52
e 48 53
e 48 57
e 48 58
e 48 59
e 48 60
e 48 62
e 48 65
e 48 66
e 48 67
e 48 68
e 48 69
e 48 72
e 48 74
e 48 75
e 49 51
e 49 52
e 49 53
e 49 54
e 49 55
e 49 56
e 49 59
e 49 60
e 49 61
e 49 64
e 49 68
e 49 70
e 49 72
e 49 73
e 49 74
e 50 51
e 50 53
e 50 56
e 50 58
e 50 60
e 50 61
e 50 62
e 50 64
e 50 65
e 50 71
e 50 73
e 50 74
e 50 75
e 51 52
e 51 54
e 51 55
e 51 56
e 51 59
e 51 60
e 51 62
e 51 65
e 51 69
e 51 73
e 51 75
e 52 55
e 52 56
e 52 57
e 52 58
e 52 61
e 52 62
e 52 64
e 52 65
e 52 68
e 52 70
e 52 75
e 53 58
e 53 59
e 53 61
e 53 62
e 53 63
e 53 69
e 53 74
e 54 58
e 54 59
e 54 62
e 54 63
e 54 66
e 54 67
e 54 69
e 54 70
e 54 75
e 55 56
e 55 57
e 55 58
e 55 60
e 55 61
e 55 62
e 55 66
e 55 67
e 55 68
e 55 70
e 56 57
e 56 59
e 56 61
e 56 63
e 56 64
e 56 67
e 56 73
e 56 75
e 57 58
e 57 60
e 57 61
e 57 65
e 57 66
e 57 67
e 57 68
e 57 69
e 57 70
e 58 60
e 58 62
e 58 63
e 58 64
e 58 65
e 58 66
e 58 71
e 58 72
e 58 73
e 59 61
e 59 62
e 59 63
e 59 67
e 59 68
e 59 74
e 60 61
e 60 63
e 60 67
e 60 68
e 60 69
e 60 70
e 60 71
e 60 72
e 60 73
e 60 74
e 61 62
e 61 63
e 61 64
e 61 65
e 61 66
e 61 67
e 61 68
e 61 69
e 61 75
e 62 63
e 62 64
e 62 65
e 62 67
e 62 69
e 62 70
e 62 71
e 62 74
e 62 75
e 63 64
e 63 66
e 63 67
e 63 69
e 63 70
e 63 72
e 63 73
e 63 74
e 63 75
e 64 66
e 64 69
e 64 74
e 64 75
e 65 69
e 65 72
e 65 75
e 66 67
e 66 71
e 66 73
e 67 68
e 67 70
e 67 71
e 67 72
e 67 75
e 68 71
e 68 75
e 69 70
e 69 71
e 69 72
e 69 73
e 69 74
e 69 75
e 70 71
e 70 73
e 71 74
e 71 75
e 73 74
e 74 75
